(set-info :source  loris-7.ddns.comp.nus.edu.sg/~project/hip/) 
;Variables declarations
(declare-fun next_80_1387_primed () Int)
(declare-fun val_80_1386_primed () Int)
(declare-fun xl_1599 () Int)
(declare-fun xs_1598 () Int)
(declare-fun n_1597 () Int)
(declare-fun tmp_primed () Int)
(declare-fun q_1570 () Int)
(declare-fun x () Int)
(declare-fun v () Int)
(declare-fun x_primed () Int)
(declare-fun v_bool_71_1391_primed () Int)
(declare-fun xs () Int)
(declare-fun ql_1568 () Int)
(declare-fun xl () Int)
(declare-fun qs_1567 () Int)
(declare-fun flted_16_1566 () Int)
(declare-fun n () Int)
(declare-fun v_bool_72_1389_primed () Int)
(declare-fun v_primed () Int)
(declare-fun qmin_1569 () Int)
(declare-fun v_bool_75_1388_primed () Int)
(declare-fun sres_1613 () Int)
(declare-fun lres_1614 () Int)
(declare-fun nres_1615 () Int)
(declare-fun v_node_80_1385_primed () Int)
;Relations declarations
;Axioms assertions
;Antecedent
(assert (= next_80_1387_primed q_1570))
(assert (= val_80_1386_primed qmin_1569))
(assert (<= xs_1598 xl_1599))
(assert (<= 0 n_1597))
(assert (<= nres_1615 n_1597))
(assert (<= n_1597 (+ nres_1615 1)))
(assert (<= lres_1614 xl_1599))
(assert (<= xs_1598 sres_1613))
(assert (<= qs_1567 ql_1568))
(assert (<= 0 flted_16_1566))
(assert (= xl_1599 ql_1568))
(assert (= xs_1598 qs_1567))
(assert (= n_1597 flted_16_1566))
(assert (= tmp_primed q_1570))
(assert (= x_primed x))
(assert (= v_primed v))
(assert (> x_primed 0))
(assert (> v_bool_71_1391_primed 0))
(assert (<= xs qmin_1569))
(assert (<= ql_1568 xl))
(assert (<= qmin_1569 qs_1567))
(assert (= (+ flted_16_1566 1) n))
(assert (<= qmin_1569 v_primed))
(assert (not (> v_bool_72_1389_primed 0)))
(assert (not (= v_primed qmin_1569)))
(assert (not (> v_bool_75_1388_primed 0)))
(assert (or (and (and (< v_node_80_1385_primed 1) (= nres_1615 0)) (<= sres_1613 lres_1614)) (and (and (<= sres_1613 lres_1614) (<= 1 nres_1615)) (> v_node_80_1385_primed 0))))
;Negation of Consequence
(assert (not false))
(check-sat)